%chk=C:\Users\QiJi\Documents\12.CC\Gaussian\jobs\C2H2.chk
# hf/3-21g

Title Card Required

  0 1
X1
C2 1 1.0
C3 2 RCC 1 90.0
X4 3 1.0 2 90.0 1 90.0
H5 2 RCH 1 90.0 3 180.0
H6 3 RCH 4 90.0 2 180.0

RCC=1.20
RCH=1.06



