%chk=C:\Users\QiJi\Documents\12.CC\Gaussian\jobs\C6H6.chk
# hf/3-21g geom=connectivity

Title Card Required

0 1
 C                  0.37879862    0.78137314   -0.01022964
 C                  1.78019855    0.78130302   -0.00980062
 C                  2.48095948    1.99491572   -0.01036581
 C                  1.78032047    3.20859852   -0.01136077
 C                  0.37892054    3.20866864   -0.01178773
 C                 -0.32184039    1.99505595   -0.01122282
 H                 -0.15624790   -0.14524708   -0.00979912
 H                  2.31515198   -0.14537073   -0.00904205
 H                  3.55095943    1.99486218   -0.01003868
 H                  2.31536699    4.13521874   -0.01179382
 H                 -0.15603289    4.13534240   -0.01254491
 H                 -1.39184034    1.99510948   -0.01154899

 1 2 1.5 6 1.5 7 1.0
 2 3 1.5 8 1.0
 3 4 1.5 9 1.0
 4 5 1.5 10 1.0
 5 6 1.5 11 1.0
 6 12 1.0
 7
 8
 9
 10
 11
 12

