%nprocshared=4
%chk=F_CClH3_qst2.chk
# RHF/6-31G(d) opt=(qst2,calcfc,maxstep=5) nosymm

F- + CH3Cl SN2 - QST2 TS search

Reactants
-1 1
 C                  0.000000    0.000000    0.000000
 Cl                 0.000000    0.000000    1.780000
 H                  0.000000    1.080000   -0.200000
 H                  0.935300   -0.540000   -0.200000
 H                 -0.935300   -0.540000   -0.200000
 F                  0.000000    0.000000   -3.500000
Products
-1 1
 F                  0.000000    0.000000    0.000000
 C                  0.000000    0.000000    1.390000
 H                  0.000000    1.024400    1.690000
 H                  0.887100   -0.512200    1.690000
 H                 -0.887100   -0.512200    1.690000
 Cl                 0.000000    0.000000    3.500000

