%nprocshared=4
%chk=F_CClH3_ts.chk
#p opt=(ts, calall) rhf/6-31g(d) freq

F- + CH3Cl SN2 - F- approaches C from back of C-Cl, maintain C3v for CH3

-1 1
 C              
 Cl                 1            B1
 H                  1            B2    2            A1
 H                  1            B3    3            A2    2            D1    0
 H                  1            B4    3            A3    4            D2    0
 F                  1            B5    3            A4    4            D3    0

   B1             2.44546595
   B2             1.06127291
   B3             1.06141874
   B4             1.06142179
   B5             2.09999554
   A1            89.46972781
   A2           119.99165065
   A3           119.99163459
   A4            90.53858405
   D1           -89.07543410
   D2           178.15076265
   D3           -90.92471825
