%nprocshared=4
%chk=F_CH4_scan.chk
# B3LYP/6-311+G** opt=(modredundant,maxstep=10) scf(maxcyc=256) nosymm

F + CH4 relaxed scan - F...H distance

0 2
 F                  0.00000000    0.00000000    0.00000000
 C                  0.00000000    0.00000000    3.50000000
 H                  0.00000000    0.00000000    4.59000000
 H                  0.00000000    1.03300000    3.13670000
 H                  0.89460000    0.00000000    3.13670000
 H                 -0.89460000    0.00000000    3.13670000

B 1 3 S 15 0.1

