%chk=h2o_opt_freq.chk
%mem=4GB
%nprocshared=4
# B3LYP/6-31G(d) Opt Freq

Water optimization and frequencies

0 1
O  0.000000  0.000000  0.117300
H  0.000000  0.757200 -0.469200
H  0.000000 -0.757200 -0.469200


