%chk=C:\Users\QiJi\Documents\12.CC\Gaussian\jobs\C6H6.chk
# hf/3-21g

Title Card Required

0 1
Fe
X1 1 1.0
C2 1 RFeC 2 A1
C3 1 RFeC 2 A1 3 72.0
C4 1 RFeC 2 A1 4 72.0
C5 1 RFeC 2 A1 5 72.0
C6 1 RFeC 2 A1 6 72.0
H7  3 RCH 1 AH 2 0.0
H8  4 RCH 1 AH 2 0.0
H9  5 RCH 1 AH 2 0.0
H10 6 RCH 1 AH 2 0.0
H11 7 RCH 1 AH 2 0.0
C12 1 RFeC 2 A2 3 36.0
C13 1 RFeC 2 A2 3 108.0
C14 1 RFeC 2 A2 3 180.0
C15 1 RFeC 2 A2 3 252.0
C16 1 RFeC 2 A2 3 324.0
H17 13 RCH 1 AH 2 180.0
H18 14 RCH 1 AH 2 180.0
H19 15 RCH 1 AH 2 180.0
H20 16 RCH 1 AH 2 180.0
H21 17 RCH 1 AH 2 180.0

RFeC=2.04
RCH=1.08
A1=144.28
A2=35.72
AH=125.72


